197 300 85 81 44 26 8 6 41 28 57 80 48 93 18 39 82 41 7 69 28 44 13 10 100 35 65 18 60 75 8 14 71 92 95 66 70 54 71 62 82 28 41 29 20 10 20 54 3 26 74 82 69 86 43 20 21 7 37 32 81 96 45 3 39 39 69 8 93 91 70 26 18 62 54 90 72 73 95 26 98 68 7 18 54 50 37 26 8 25 57 89 20 1 43 59 92 11 66 36 54 87 61 71 49 66 12 72 91 6 97 40 26 3 10 79 4 98 4 12 23 12 52 94 12 94 52 55 57 70 90 10 56 2 32 56 68 96 27 58 53 23 49 78 78 58 56 33 56 11 44 78 22 95 71 86 41 75 40 49 96 30 10 3 83 41 59 50 88 85 59 41 60 8 18 89 65 26 21 72 36 65 49 10 11 72 95 3 98 86 51 93 15 60 95 50 53 53 99 